100
200
138
137
136
135
134
132
131
130
130
129
128
128
127
125
125
123
123
122
120
120
119
118
117
117
116
116
114
114
113
112
112
111
110
110
110
108
108
106
106
104
102
102
102
101
98
96
95
95
95
94
93
92
92
90
90
89
89
86
85
82
82
81
81
79
78
78
77
76
75
74
73
73
71
71
70
64
64
63
61
59
58
58
58
57
57
55
54
54
52
52
52
50
48
46
45
44
43
42
42
42
